
Gurobi 10.0.1 (linux64) logging started Sun Nov 26 15:56:26 2023

Set parameter LogFile to value "ArtificialInstance/ExperimentV2/S3T3K2/BaRo/gurobi91.txt"
Gurobi Optimizer version 10.0.1 build v10.0.1rc0 (linux64)

CPU model: AMD EPYC 7H12 64-Core Processor, instruction set [SSE2|AVX|AVX2]
Thread count: 128 physical cores, 128 logical processors, using up to 32 threads

Academic license 656792 - for non-commercial use only - registered to b.___@student.vu.nl
Optimize a model with 1923 rows, 2881 columns and 9923 nonzeros
Model fingerprint: 0x3a68a34a
Variable types: 1 continuous, 2880 integer (2880 binary)
Coefficient statistics:
  Matrix range     [1e+00, 4e+01]
  Objective range  [1e+00, 2e+01]
  Bounds range     [1e+00, 1e+00]
  RHS range        [1e+00, 1e+00]
Found heuristic solution: objective 487.8656398
Presolve time: 0.01s
Presolved: 1923 rows, 2881 columns, 9923 nonzeros
Variable types: 1 continuous, 2880 integer (2880 binary)

Root relaxation: objective 3.823848e+01, 1868 iterations, 0.05 seconds (0.04 work units)

    Nodes    |    Current Node    |     Objective Bounds      |     Work
 Expl Unexpl |  Obj  Depth IntInf | Incumbent    BestBd   Gap | It/Node Time

     0     0   38.23848    0  268  487.86564   38.23848  92.2%     -    0s
H    0     0                     188.1080096   38.23848  79.7%     -    0s
H    0     0                     128.1247342   38.23848  70.2%     -    0s
H    0     0                      58.5877482   38.23848  34.7%     -    0s
     0     0   41.43676    0  402   58.58775   41.43676  29.3%     -    0s
H    0     0                      56.8320163   41.43676  27.1%     -    0s
     0     0   44.99762    0  419   56.83202   44.99762  20.8%     -    0s
H    0     0                      52.9405044   45.21677  14.6%     -    0s
     0     0   45.21677    0  422   52.94050   45.21677  14.6%     -    0s
     0     0   46.27373    0  410   52.94050   46.27373  12.6%     -    0s
H    0     0                      52.7583977   46.27373  12.3%     -    0s
     0     0   46.33212    0  328   52.75840   46.33212  12.2%     -    0s
     0     0   46.33685    0  362   52.75840   46.33685  12.2%     -    0s
     0     0   46.33685    0  368   52.75840   46.33685  12.2%     -    0s
     0     0   48.31182    0  333   52.75840   48.31182  8.43%     -    0s
     0     0   48.31277    0  321   52.75840   48.31277  8.43%     -    0s
     0     0   48.41064    0  372   52.75840   48.41064  8.24%     -    0s
     0     0   48.47165    0  361   52.75840   48.47165  8.13%     -    0s
     0     0   48.48348    0  362   52.75840   48.48348  8.10%     -    0s
     0     0   48.48348    0  362   52.75840   48.48348  8.10%     -    0s
     0     0   48.48348    0  363   52.75840   48.48348  8.10%     -    0s
     0     0   48.48348    0  361   52.75840   48.48348  8.10%     -    0s
     0     0   48.74579    0  419   52.75840   48.74579  7.61%     -    0s
     0     0   48.76978    0  427   52.75840   48.76978  7.56%     -    0s
     0     0   48.76978    0  428   52.75840   48.76978  7.56%     -    0s
     0     0   48.76999    0  443   52.75840   48.76999  7.56%     -    0s
     0     0   48.76999    0  445   52.75840   48.76999  7.56%     -    0s
     0     0   48.76999    0  450   52.75840   48.76999  7.56%     -    0s
     0     0   48.76999    0  414   52.75840   48.76999  7.56%     -    0s
     0     0   48.76999    0  260   52.75840   48.76999  7.56%     -    1s
     0     0   48.76999    0  385   52.75840   48.76999  7.56%     -    1s
     0     0   48.76999    0  404   52.75840   48.76999  7.56%     -    1s
     0     0   48.86224    0  320   52.75840   48.86224  7.38%     -    1s
     0     0   48.92260    0  365   52.75840   48.92260  7.27%     -    1s
     0     0   48.92260    0  376   52.75840   48.92260  7.27%     -    1s
     0     0   49.33815    0  338   52.75840   49.33815  6.48%     -    1s
     0     0   49.36204    0  351   52.75840   49.36204  6.44%     -    1s
     0     0   49.36285    0  344   52.75840   49.36285  6.44%     -    1s
     0     0   49.37117    0  456   52.75840   49.37117  6.42%     -    1s
     0     0   49.37419    0  482   52.75840   49.37419  6.41%     -    1s
     0     0   49.54794    0  558   52.75840   49.54794  6.09%     -    1s
     0     0   49.55748    0  592   52.75840   49.55748  6.07%     -    1s
     0     0   49.55773    0  607   52.75840   49.55773  6.07%     -    1s
     0     0   50.24664    0  573   52.75840   50.24664  4.76%     -    1s
     0     0   50.55419    0  558   52.75840   50.55419  4.18%     -    1s
     0     0   50.58827    0  565   52.75840   50.58827  4.11%     -    1s
     0     0   50.96884    0  587   52.75840   50.96884  3.39%     -    1s
     0     0   50.96884    0  530   52.75840   50.96884  3.39%     -    2s
     0     2   50.96884    0  530   52.75840   50.96884  3.39%     -    2s

Cutting planes:
  Gomory: 4
  Clique: 3
  Zero half: 87
  RLT: 59

Explored 26 nodes (17930 simplex iterations) in 2.38 seconds (1.45 work units)
Thread count was 32 (of 128 available processors)

Solution count 7: 52.7584 52.9405 56.832 ... 487.866

Optimal solution found (tolerance 1.00e-04)
Best objective 5.275839773757e+01, best bound 5.275839773757e+01, gap 0.0000%
